2504421203581537533503,1,1,2,03,14,1,2,08,4,1,2,04,13,1,2,01,13,1,2,07,8,1,2,01,11,1,2,015,5,1,2,013,1,1,2,010,6,1,2,011,8,1,2,05,12,1,2,010,15,1,2,06,5,1,2,07,13,1,2,03,2,1,2,08,12,1,2,015,8,1,2,09,5,1,2,011,8,1,2,03,4,1,2,08,11,1,2,07,8,1,2,06,14,1,2,01,6,1,2,08,15,1,2,03,9,1,2,010,1,1,2,07,6,1,2,015,9,1,2,012,11,1,2,011,5,1,2,01,2,1,2,04,2,1,2,05,6,1,2,09,12,1,2,011,1,1,2,04,4,1,2,011,4,1,2,09,5,1,2,011,1,1,2,05,13,1,2,013,4,1,2,013,1,1,2,03,13,1,2,013,11,1,2,04,13,1,2,012,9,1,2,01,1,1,2,06,1,1,2,0